% Instancia problemática tipo: INFACTIBLE_DEMANDA
% Razón: Demanda (267204.0) excede capacidad física máxima teórica
% Demanda total: 267204.0
% Suministro total: 26720.4
% Factor holgura: 0.1

nP = 2;
nT = 3;
nC1 = 4;
nC2 = 6;
nA = 42;
nD = 3;

arc_from = [1, 1, 1, 2, 2, 2, 3, 3, 3, 3, 4, 4, 4, 4, 5, 5, 5, 5, 6, 6, 6, 6, 6, 6, 7, 7, 7, 7, 7, 7, 8, 8, 8, 8, 8, 8, 9, 9, 9, 9, 9, 9];
arc_to = [3, 4, 5, 3, 4, 5, 6, 7, 8, 9, 6, 7, 8, 9, 6, 7, 8, 9, 10, 11, 12, 13, 14, 15, 10, 11, 12, 13, 14, 15, 10, 11, 12, 13, 14, 15, 10, 11, 12, 13, 14, 15];

supply = [13360.20, 13360.20, 0, 0, 0, 0, 0, 0, 0, 0, 0, 0, 0, 0, 0];
demand = [0, 0, 0, 0, 0, 26720.40, 26720.40, 26720.40, 26720.40, 26720.40, 26720.40, 26720.40, 26720.40, 26720.40, 26720.40];

max_capacity = [795, 1414, 3181];

install_cost = array2d(1..nA, 1..nD, [
  20, 24, 32,
  50, 62, 78,
  20, 24, 32,
  50, 62, 78,
  20, 24, 32,
  50, 62, 78,
  20, 24, 32,
  50, 62, 78,
  20, 24, 32,
  50, 62, 78,
  20, 24, 32,
  50, 62, 78,
  20, 24, 32,
  50, 62, 78,
  20, 24, 32,
  50, 62, 78,
  20, 24, 32,
  50, 62, 78,
  20, 24, 32,
  50, 62, 78,
  20, 24, 32,
  50, 62, 78,
  20, 24, 32,
  50, 62, 78,
  20, 24, 32,
  50, 62, 78,
  20, 24, 32,
  50, 62, 78,
  20, 24, 32,
  50, 62, 78,
  20, 24, 32,
  50, 62, 78,
  20, 24, 32,
  50, 62, 78,
  20, 24, 32,
  50, 62, 78,
  20, 24, 32,
  50, 62, 78,
  20, 24, 32,
  50, 62, 78,
  20, 24, 32,
  50, 62, 78
]);

trans_cost = [7.65, 7.10, 3.56, 5.84, 6.62, 11.17, 9.03, 2.71, 8.97, 6.84, 5.97, 9.84, 11.09, 10.79, 5.48, 7.07, 8.99, 10.93, 6.56, 7.44, 4.68, 4.41, 10.44, 12.07, 7.78, 11.01, 9.08, 6.06, 9.08, 12.61, 7.89, 12.69, 0.50, 10.47, 8.26, 7.10, 8.28, 2.04, 7.34, 9.07, 12.43, 6.45];
